#pLT is two-dimensional [i,r]=[component, individual]
#[i,*] means all data in row i.

param pLT := 
[1,*]
1  0    2  5    3  6    4  8    5  4    6  4    

[2,*]
1  1    2  4    3  6    4  3    5  3    6  3    
;